/* Objective function */
min: 750 X1 + 900 X2 + 450 X3 + 13000 X4 + 12000 X5 + 5000 X6 + 900 X7 + 1200 X8 + 750 X9 + 0 X10 + 0 X11;


/* Constraints */

X1 + 20 X4 + X7 + 900 X10 + 450 X11 >= 420;
X1 + 15 X4 + X8 + 900 X10 + 450 X11 >= 360;
X1 + 12 X4 + X9 + 900 X10 + 450 X11 >= 300;

X2 + 20 X5 + X7 - 750 X10 >= 420;
X2 + 15 X5 + X8 - 750 X10 >= 360;
X2 + 12 X5 + X9  -750 X10 >= 300;

X3 + 20 X6 + X7 - 750 X11 >= 420;
X3 + 15 X6 + X8 - 750 X11 >= 360;
X3 + 12 X6 + X9 - 750 X11 >= 300;




/* X1,X2,X3,X4,X5,X6,X7,X8,X9 are >= 0 and X10 and X11 are URS */